40	100	100	100
73	38	69
68	41	90
95	15	96
73	15	89
90	49	95
76	48	83
70	45	69
92	15	74
69	26	97
99	11	94
98	19	90
77	45	92
66	32	77
83	40	86
72	6	79
91	7	76
71	8	97
83	26	93
67	19	83
88	28	91
88	29	92
88	19	83
74	44	85
91	47	69
87	6	93
78	18	94
67	37	70
72	28	66
82	18	88
87	8	88
70	1	94
77	33	85
76	33	76
82	40	72
93	37	74
77	21	84
68	4	70
97	32	69
92	29	71
95	32	94
